NAME          
ROWS
 N  OBJ
 L  c1
 L  c2
 L  c3
 L  c4
 L  c5
 L  c6
 L  c7
 L  c8
 L  c9
 L  c10
 L  c11
 L  c12
 L  c13
 L  c14
 L  c15
 L  c16
 L  c17
 L  c18
 L  c19
 L  c20
 L  c21
 L  c22
 L  c23
 L  c24
 L  c25
 L  c26
 L  c27
 L  c28
 L  c29
 L  c30
 L  c31
 L  c32
COLUMNS
    MARKER    'MARKER'                 'INTORG'
    x[1]      c1        1
    x[1]      c8        1
    x[1]      c9        1
    x[1]      c17       1
    x[1]      OBJ       -1
    x[2]      c1        1
    x[2]      c2        1
    x[2]      c10       1
    x[2]      c18       1
    x[2]      OBJ       -1
    x[3]      c2        1
    x[3]      c3        1
    x[3]      c11       1
    x[3]      c19       1
    x[3]      OBJ       -1
    x[4]      c3        1
    x[4]      c4        1
    x[4]      c12       1
    x[4]      c20       1
    x[4]      OBJ       -1
    x[5]      c4        1
    x[5]      c5        1
    x[5]      c13       1
    x[5]      c21       1
    x[5]      OBJ       -1
    x[6]      c5        1
    x[6]      c6        1
    x[6]      c14       1
    x[6]      c22       1
    x[6]      OBJ       -1
    x[7]      c6        1
    x[7]      c7        1
    x[7]      c15       1
    x[7]      c23       1
    x[7]      OBJ       -1
    x[8]      c7        1
    x[8]      c8        1
    x[8]      c16       1
    x[8]      c24       1
    x[8]      OBJ       -1
    x[9]      c9        1
    x[9]      c25       1
    x[9]      OBJ       -1
    x[10]     c17       1
    x[10]     c25       1
    x[10]     OBJ       -1
    x[11]     c10       1
    x[11]     c26       1
    x[11]     OBJ       -1
    x[12]     c18       1
    x[12]     c26       1
    x[12]     OBJ       -1
    x[13]     c11       1
    x[13]     c27       1
    x[13]     OBJ       -1
    x[14]     c19       1
    x[14]     c27       1
    x[14]     OBJ       -1
    x[15]     c12       1
    x[15]     c28       1
    x[15]     OBJ       -1
    x[16]     c20       1
    x[16]     c28       1
    x[16]     OBJ       -1
    x[17]     c13       1
    x[17]     c29       1
    x[17]     OBJ       -1
    x[18]     c21       1
    x[18]     c29       1
    x[18]     OBJ       -1
    x[19]     c14       1
    x[19]     c30       1
    x[19]     OBJ       -1
    x[20]     c22       1
    x[20]     c30       1
    x[20]     OBJ       -1
    x[21]     c15       1
    x[21]     c31       1
    x[21]     OBJ       -1
    x[22]     c23       1
    x[22]     c31       1
    x[22]     OBJ       -1
    x[23]     c16       1
    x[23]     c32       1
    x[23]     OBJ       -1
    x[24]     c24       1
    x[24]     c32       1
    x[24]     OBJ       -1
RHS
    rhs       c1        1
    rhs       c2        1
    rhs       c3        1
    rhs       c4        1
    rhs       c5        1
    rhs       c6        1
    rhs       c7        1
    rhs       c8        1
    rhs       c9        1
    rhs       c10       1
    rhs       c11       1
    rhs       c12       1
    rhs       c13       1
    rhs       c14       1
    rhs       c15       1
    rhs       c16       1
    rhs       c17       1
    rhs       c18       1
    rhs       c19       1
    rhs       c20       1
    rhs       c21       1
    rhs       c22       1
    rhs       c23       1
    rhs       c24       1
    rhs       c25       1
    rhs       c26       1
    rhs       c27       1
    rhs       c28       1
    rhs       c29       1
    rhs       c30       1
    rhs       c31       1
    rhs       c32       1
RANGES
BOUNDS
 BV bounds    x[1]
 BV bounds    x[2]
 BV bounds    x[3]
 BV bounds    x[4]
 BV bounds    x[5]
 BV bounds    x[6]
 BV bounds    x[7]
 BV bounds    x[8]
 BV bounds    x[9]
 BV bounds    x[10]
 BV bounds    x[11]
 BV bounds    x[12]
 BV bounds    x[13]
 BV bounds    x[14]
 BV bounds    x[15]
 BV bounds    x[16]
 BV bounds    x[17]
 BV bounds    x[18]
 BV bounds    x[19]
 BV bounds    x[20]
 BV bounds    x[21]
 BV bounds    x[22]
 BV bounds    x[23]
 BV bounds    x[24]
ENDATA
